c nIsolatedPIs 8
c maxPI 56
p cnf 234 535
c gate 57 13 41 0
13 -57 0
41 -57 0
-13 -41 57 0
c gate 58 -13 -41 0
-13 -58 0
-41 -58 0
13 41 58 0
c gate 59 -57 -58 0
-57 -59 0
-58 -59 0
57 58 59 0
c gate 60 11 39 0
11 -60 0
39 -60 0
-11 -39 60 0
c gate 61 -11 -39 0
-11 -61 0
-39 -61 0
11 39 61 0
c gate 62 10 38 0
10 -62 0
38 -62 0
-10 -38 62 0
c gate 63 9 37 0
9 -63 0
37 -63 0
-9 -37 63 0
c gate 64 -8 -36 0
-8 -64 0
-36 -64 0
8 36 64 0
c gate 65 -6 -34 0
-6 -65 0
-34 -65 0
6 34 65 0
c gate 66 -7 -35 0
-7 -66 0
-35 -66 0
7 35 66 0
c gate 67 -65 -66 0
-65 -67 0
-66 -67 0
65 66 67 0
c gate 68 5 33 0
5 -68 0
33 -68 0
-5 -33 68 0
c gate 69 6 34 0
6 -69 0
34 -69 0
-6 -34 69 0
c gate 70 -68 -69 0
-68 -70 0
-69 -70 0
68 69 70 0
c gate 71 67 -70 0
67 -71 0
-70 -71 0
-67 70 71 0
c gate 72 7 35 0
7 -72 0
35 -72 0
-7 -35 72 0
c gate 73 8 36 0
8 -73 0
36 -73 0
-8 -36 73 0
c gate 74 -72 -73 0
-72 -74 0
-73 -74 0
72 73 74 0
c gate 75 -71 74 0
-71 -75 0
74 -75 0
71 -74 75 0
c gate 76 -64 -75 0
-64 -76 0
-75 -76 0
64 75 76 0
c gate 77 -63 -76 0
-63 -77 0
-76 -77 0
63 76 77 0
c gate 78 -9 -37 0
-9 -78 0
-37 -78 0
9 37 78 0
c gate 79 -10 -38 0
-10 -79 0
-38 -79 0
10 38 79 0
c gate 80 -78 -79 0
-78 -80 0
-79 -80 0
78 79 80 0
c gate 81 -77 80 0
-77 -81 0
80 -81 0
77 -80 81 0
c gate 82 -62 -81 0
-62 -82 0
-81 -82 0
62 81 82 0
c gate 83 -61 -82 0
-61 -83 0
-82 -83 0
61 82 83 0
c gate 84 -60 -83 0
-60 -84 0
-83 -84 0
60 83 84 0
c gate 85 2 30 0
2 -85 0
30 -85 0
-2 -30 85 0
c gate 86 1 29 0
1 -86 0
29 -86 0
-1 -29 86 0
c gate 87 -85 -86 0
-85 -87 0
-86 -87 0
85 86 87 0
c gate 88 -3 -31 0
-3 -88 0
-31 -88 0
3 31 88 0
c gate 89 -2 -30 0
-2 -89 0
-30 -89 0
2 30 89 0
c gate 90 -88 -89 0
-88 -90 0
-89 -90 0
88 89 90 0
c gate 91 -87 90 0
-87 -91 0
90 -91 0
87 -90 91 0
c gate 92 3 31 0
3 -92 0
31 -92 0
-3 -31 92 0
c gate 93 4 32 0
4 -93 0
32 -93 0
-4 -32 93 0
c gate 94 -92 -93 0
-92 -94 0
-93 -94 0
92 93 94 0
c gate 95 -91 94 0
-91 -95 0
94 -95 0
91 -94 95 0
c gate 96 -5 -33 0
-5 -96 0
-33 -96 0
5 33 96 0
c gate 97 -4 -32 0
-4 -97 0
-32 -97 0
4 32 97 0
c gate 98 -64 -97 0
-64 -98 0
-97 -98 0
64 97 98 0
c gate 99 -96 98 0
-96 -99 0
98 -99 0
96 -98 99 0
c gate 100 67 99 0
67 -100 0
99 -100 0
-67 -99 100 0
c gate 101 -95 100 0
-95 -101 0
100 -101 0
95 -100 101 0
c gate 102 75 101 0
75 -102 0
101 -102 0
-75 -101 102 0
c gate 103 -63 -78 0
-63 -103 0
-78 -103 0
63 78 103 0
c gate 104 -61 -79 0
-61 -104 0
-79 -104 0
61 79 104 0
c gate 105 103 104 0
103 -105 0
104 -105 0
-103 -104 105 0
c gate 106 102 105 0
102 -106 0
105 -106 0
-102 -105 106 0
c gate 107 84 -106 0
84 -107 0
-106 -107 0
-84 106 107 0
c gate 108 12 40 0
12 -108 0
40 -108 0
-12 -40 108 0
c gate 109 -12 -40 0
-12 -109 0
-40 -109 0
12 40 109 0
c gate 110 -108 -109 0
-108 -110 0
-109 -110 0
108 109 110 0
c gate 111 -60 104 0
-60 -111 0
104 -111 0
60 -104 111 0
c gate 112 110 111 0
110 -112 0
111 -112 0
-110 -111 112 0
c gate 113 107 112 0
107 -113 0
112 -113 0
-107 -112 113 0
c gate 114 -107 -109 0
-107 -114 0
-109 -114 0
107 109 114 0
c gate 115 -108 -114 0
-108 -115 0
-114 -115 0
108 114 115 0
c gate 116 59 -115 0
59 -116 0
-115 -116 0
-59 115 116 0
c gate 117 -113 -116 0
-113 -117 0
-116 -117 0
113 116 117 0
c gate 118 60 -109 0
60 -118 0
-109 -118 0
-60 109 118 0
c gate 119 -108 -118 0
-108 -119 0
-118 -119 0
108 118 119 0
c gate 120 -112 119 0
-112 -120 0
119 -120 0
112 -119 120 0
c gate 121 59 -120 0
59 -121 0
-120 -121 0
-59 120 121 0
c gate 122 -117 -121 0
-117 -122 0
-121 -122 0
117 121 122 0
c gate 123 -113 -122 0
-113 -123 0
-122 -123 0
113 122 123 0
c gate 124 59 -123 0
59 -124 0
-123 -124 0
-59 123 124 0
c gate 125 -62 103 0
-62 -125 0
103 -125 0
62 -103 125 0
c gate 126 111 125 0
111 -126 0
125 -126 0
-111 -125 126 0
c gate 127 102 -126 0
102 -127 0
-126 -127 0
-102 126 127 0
c gate 128 106 -110 0
106 -128 0
-110 -128 0
-106 110 128 0
c gate 129 84 128 0
84 -129 0
128 -129 0
-84 -128 129 0
c gate 130 -127 -129 0
-127 -130 0
-129 -130 0
127 129 130 0
c gate 131 102 130 0
102 -131 0
130 -131 0
-102 -130 131 0
c gate 132 -21 -49 0
-21 -132 0
-49 -132 0
21 49 132 0
c gate 133 -20 -48 0
-20 -133 0
-48 -133 0
20 48 133 0
c gate 134 19 47 0
19 -134 0
47 -134 0
-19 -47 134 0
c gate 135 20 48 0
20 -135 0
48 -135 0
-20 -48 135 0
c gate 136 -134 -135 0
-134 -136 0
-135 -136 0
134 135 136 0
c gate 137 -133 -136 0
-133 -137 0
-136 -137 0
133 136 137 0
c gate 138 14 42 0
14 -138 0
42 -138 0
-14 -42 138 0
c gate 139 -57 -138 0
-57 -139 0
-138 -139 0
57 138 139 0
c gate 140 -116 139 0
-116 -140 0
139 -140 0
116 -139 140 0
c gate 141 -16 -44 0
-16 -141 0
-44 -141 0
16 44 141 0
c gate 142 16 44 0
16 -142 0
44 -142 0
-16 -44 142 0
c gate 143 15 43 0
15 -143 0
43 -143 0
-15 -43 143 0
c gate 144 -142 -143 0
-142 -144 0
-143 -144 0
142 143 144 0
c gate 145 -141 -144 0
-141 -145 0
-144 -145 0
141 144 145 0
c gate 146 140 -145 0
140 -146 0
-145 -146 0
-140 145 146 0
c gate 147 -141 -142 0
-141 -147 0
-142 -147 0
141 142 147 0
c gate 148 -14 -42 0
-14 -148 0
-42 -148 0
14 42 148 0
c gate 149 -15 -43 0
-15 -149 0
-43 -149 0
15 43 149 0
c gate 150 -143 -149 0
-143 -150 0
-149 -150 0
143 149 150 0
c gate 151 -148 150 0
-148 -151 0
150 -151 0
148 -150 151 0
c gate 152 147 151 0
147 -152 0
151 -152 0
-147 -151 152 0
c gate 153 -145 -152 0
-145 -153 0
-152 -153 0
145 152 153 0
c gate 154 17 45 0
17 -154 0
45 -154 0
-17 -45 154 0
c gate 155 -17 -45 0
-17 -155 0
-45 -155 0
17 45 155 0
c gate 156 -154 -155 0
-154 -156 0
-155 -156 0
154 155 156 0
c gate 157 -153 156 0
-153 -157 0
156 -157 0
153 -156 157 0
c gate 158 -146 157 0
-146 -158 0
157 -158 0
146 -157 158 0
c gate 159 18 46 0
18 -159 0
46 -159 0
-18 -46 159 0
c gate 160 -154 -159 0
-154 -160 0
-159 -160 0
154 159 160 0
c gate 161 -158 160 0
-158 -161 0
160 -161 0
158 -160 161 0
c gate 162 -19 -47 0
-19 -162 0
-47 -162 0
19 47 162 0
c gate 163 -18 -46 0
-18 -163 0
-46 -163 0
18 46 163 0
c gate 164 -133 -163 0
-133 -164 0
-163 -164 0
133 163 164 0
c gate 165 -162 164 0
-162 -165 0
164 -165 0
162 -164 165 0
c gate 166 136 165 0
136 -166 0
165 -166 0
-136 -165 166 0
c gate 167 -161 166 0
-161 -167 0
166 -167 0
161 -166 167 0
c gate 168 -137 -167 0
-137 -168 0
-167 -168 0
137 167 168 0
c gate 169 -132 -168 0
-132 -169 0
-168 -169 0
132 168 169 0
c gate 170 -24 -52 0
-24 -170 0
-52 -170 0
24 52 170 0
c gate 171 21 49 0
21 -171 0
49 -171 0
-21 -49 171 0
c gate 172 22 50 0
22 -172 0
50 -172 0
-22 -50 172 0
c gate 173 -171 -172 0
-171 -173 0
-172 -173 0
171 172 173 0
c gate 174 -170 173 0
-170 -174 0
173 -174 0
170 -173 174 0
c gate 175 -22 -50 0
-22 -175 0
-50 -175 0
22 50 175 0
c gate 176 -23 -51 0
-23 -176 0
-51 -176 0
23 51 176 0
c gate 177 -175 -176 0
-175 -177 0
-176 -177 0
175 176 177 0
c gate 178 23 51 0
23 -178 0
51 -178 0
-23 -51 178 0
c gate 179 24 52 0
24 -179 0
52 -179 0
-24 -52 179 0
c gate 180 -178 -179 0
-178 -180 0
-179 -180 0
178 179 180 0
c gate 181 177 180 0
177 -181 0
180 -181 0
-177 -180 181 0
c gate 182 174 181 0
174 -182 0
181 -182 0
-174 -181 182 0
c gate 183 -169 182 0
-169 -183 0
182 -183 0
169 -182 183 0
c gate 184 161 166 0
161 -184 0
166 -184 0
-161 -166 184 0
c gate 185 140 152 0
140 -185 0
152 -185 0
-140 -152 185 0
c gate 186 -124 130 0
-124 -186 0
130 -186 0
124 -130 186 0
c gate 187 123 -131 0
123 -187 0
-131 -187 0
-123 131 187 0
c gate 188 121 147 0
121 -188 0
147 -188 0
-121 -147 188 0
c gate 189 115 188 0
115 -189 0
188 -189 0
-115 -188 189 0
c gate 190 -121 -147 0
-121 -190 0
-147 -190 0
121 147 190 0
c gate 191 116 190 0
116 -191 0
190 -191 0
-116 -190 191 0
c gate 192 -189 -191 0
-189 -192 0
-191 -192 0
189 191 192 0
c gate 193 139 151 0
139 -193 0
151 -193 0
-139 -151 193 0
c gate 194 -192 193 0
-192 -194 0
193 -194 0
192 -193 194 0
c gate 195 -187 -194 0
-187 -195 0
-194 -195 0
187 194 195 0
c gate 196 -186 -195 0
-186 -196 0
-195 -196 0
186 195 196 0
c gate 197 -185 -196 0
-185 -197 0
-196 -197 0
185 196 197 0
c gate 198 -185 -195 0
-185 -198 0
-195 -198 0
185 195 198 0
c gate 199 157 184 0
157 -199 0
184 -199 0
-157 -184 199 0
c gate 200 -198 -199 0
-198 -200 0
-199 -200 0
198 199 200 0
c gate 201 -197 -200 0
-197 -201 0
-200 -201 0
197 200 201 0
c gate 202 -184 201 0
-184 -202 0
201 -202 0
184 -201 202 0
c gate 203 -132 -137 0
-132 -203 0
-137 -203 0
132 137 203 0
c gate 204 182 203 0
182 -204 0
203 -204 0
-182 -203 204 0
c gate 205 184 204 0
184 -205 0
204 -205 0
-184 -204 205 0
c gate 206 -202 -205 0
-202 -206 0
-205 -206 0
202 205 206 0
c gate 207 -183 -206 0
-183 -207 0
-206 -207 0
183 206 207 0
c gate 208 28 -56 0
28 -208 0
-56 -208 0
-28 56 208 0
c gate 209 -28 56 0
-28 -209 0
56 -209 0
28 -56 209 0
c gate 210 -208 -209 0
-208 -210 0
-209 -210 0
208 209 210 0
c gate 211 27 55 0
27 -211 0
55 -211 0
-27 -55 211 0
c gate 212 -170 -211 0
-170 -212 0
-211 -212 0
170 211 212 0
c gate 213 -25 -53 0
-25 -213 0
-53 -213 0
25 53 213 0
c gate 214 25 53 0
25 -214 0
53 -214 0
-25 -53 214 0
c gate 215 -213 -214 0
-213 -215 0
-214 -215 0
213 214 215 0
c gate 216 212 215 0
212 -216 0
215 -216 0
-212 -215 216 0
c gate 217 -210 216 0
-210 -217 0
216 -217 0
210 -216 217 0
c gate 218 -177 180 0
-177 -218 0
180 -218 0
177 -180 218 0
c gate 219 -27 -55 0
-27 -219 0
-55 -219 0
27 55 219 0
c gate 220 -26 -54 0
-26 -220 0
-54 -220 0
26 54 220 0
c gate 221 26 54 0
26 -221 0
54 -221 0
-26 -54 221 0
c gate 222 -220 -221 0
-220 -222 0
-221 -222 0
220 221 222 0
c gate 223 -219 222 0
-219 -223 0
222 -223 0
219 -222 223 0
c gate 224 -218 223 0
-218 -224 0
223 -224 0
218 -223 224 0
c gate 225 217 224 0
217 -225 0
224 -225 0
-217 -224 225 0
c gate 226 -207 -225 0
-207 -226 0
-225 -226 0
207 225 226 0
c gate 227 -131 -226 0
-131 -227 0
-226 -227 0
131 226 227 0
c gate 228 -122 227 0
-122 -228 0
227 -228 0
122 -227 228 0
c gate 229 -122 -186 0
-122 -229 0
-186 -229 0
122 186 229 0
c gate 230 226 -229 0
226 -230 0
-229 -230 0
-226 229 230 0
c gate 231 -228 -230 0
-228 -231 0
-230 -231 0
228 230 231 0
c gate 232 -124 231 0
-124 -232 0
231 -232 0
124 -231 232 0
c gate 233 124 -231 0
124 -233 0
-231 -233 0
-124 231 233 0
c gate 234 -232 -233 0
-232 -234 0
-233 -234 0
232 233 234 0
c PO
-234 0
